SDVRP instances/p01/p01_7090_tsplib0_split0.vrp
NAME:.\SDVRP_split
BEST_KNOWN: 0
COMMENT: 0
DIMENSION: 327
CAPACITY: 160
EDGE_WEIGHT_FORMAT: FUNCTION
EDGE_WEIGHT_TYPE: EXACT_2D
NODE_COORD_SECTION
1 0.00000 0.00000
2 7 12
3 7 12
4 7 12
5 7 12
6 7 12
7 7 12
8 7 12
9 19 9
10 19 9
11 19 9
12 19 9
13 19 9
14 19 9
15 19 9
16 22 24
17 22 24
18 22 24
19 22 24
20 22 24
21 22 24
22 22 24
23 22 24
24 -10 -14
25 -10 -14
26 -10 -14
27 -10 -14
28 -10 -14
29 10 -10
30 10 -10
31 10 -10
32 10 -10
33 10 -10
34 10 -10
35 10 -10
36 10 -10
37 -9 7
38 -9 7
39 -9 7
40 -9 7
41 -9 7
42 -9 7
43 -9 7
44 -13 23
45 -13 23
46 -13 23
47 -13 23
48 -13 23
49 -13 23
50 -13 23
51 -13 23
52 -13 23
53 1 22
54 1 22
55 1 22
56 1 22
57 1 22
58 1 22
59 22 -7
60 22 -7
61 22 -7
62 22 -7
63 22 -7
64 22 -7
65 22 -7
66 21 -19
67 21 -19
68 21 -19
69 21 -19
70 21 -19
71 12 1
72 12 1
73 12 1
74 12 1
75 12 1
76 12 1
77 1 -8
78 1 -8
79 1 -8
80 1 -8
81 1 -8
82 1 -8
83 1 -8
84 -25 -15
85 -25 -15
86 -25 -15
87 -25 -15
88 -25 -15
89 -25 -15
90 -25 -15
91 -25 -15
92 -18 2
93 -18 2
94 -18 2
95 -18 2
96 6 -24
97 6 -24
98 6 -24
99 6 -24
100 6 -24
101 6 -24
102 6 -24
103 22 1
104 22 1
105 22 1
106 22 1
107 22 1
108 22 1
109 -3 -17
110 -3 -17
111 -3 -17
112 -3 -17
113 -3 -17
114 -13 -7
115 -13 -7
116 -13 -7
117 -13 -7
118 -17 -27
119 -17 -27
120 -17 -27
121 -17 -27
122 -17 -27
123 -17 -27
124 -17 -27
125 27 18
126 27 18
127 27 18
128 27 18
129 27 18
130 32 2
131 32 2
132 32 2
133 32 2
134 32 2
135 32 2
136 12 17
137 12 17
138 12 17
139 12 17
140 12 17
141 12 17
142 -14 17
143 -14 17
144 -14 17
145 -14 17
146 -14 17
147 -14 17
148 -22 12
149 -22 12
150 -22 12
151 -22 12
152 -22 12
153 -23 -2
154 -23 -2
155 -23 -2
156 -23 -2
157 -23 -2
158 -23 -2
159 -3 28
160 -3 28
161 -3 28
162 -3 28
163 -3 28
164 -3 28
165 -3 28
166 -3 28
167 0 8
168 0 8
169 0 8
170 0 8
171 0 8
172 13 27
173 13 27
174 13 27
175 13 27
176 13 27
177 28 8
178 28 8
179 28 8
180 28 8
181 28 8
182 28 8
183 28 -13
184 28 -13
185 28 -13
186 28 -13
187 28 -13
188 28 -13
189 7 29
190 7 29
191 7 29
192 7 29
193 7 29
194 7 29
195 7 29
196 8 6
197 8 6
198 8 6
199 8 6
200 8 6
201 8 6
202 16 -30
203 16 -30
204 16 -30
205 16 -30
206 16 -30
207 16 -30
208 31 -7
209 31 -7
210 31 -7
211 31 -7
212 31 -7
213 31 -7
214 31 -7
215 32 23
216 32 23
217 32 23
218 32 23
219 32 23
220 32 23
221 32 23
222 33 29
223 33 29
224 33 29
225 33 29
226 33 29
227 33 29
228 33 29
229 33 29
230 33 29
231 2 -18
232 2 -18
233 2 -18
234 2 -18
235 2 -18
236 15 -5
237 15 -5
238 15 -5
239 15 -5
240 15 -5
241 15 -5
242 15 -5
243 15 -5
244 15 -5
245 29 -25
246 29 -25
247 29 -25
248 29 -25
249 29 -25
250 29 -25
251 29 -25
252 29 -25
253 29 -25
254 -25 -34
255 -25 -34
256 -25 -34
257 -25 -34
258 -25 -34
259 -25 -34
260 -20 -23
261 -20 -23
262 -20 -23
263 -20 -23
264 -20 -23
265 -20 -23
266 -20 -23
267 -9 -30
268 -9 -30
269 -9 -30
270 -9 -30
271 -9 -30
272 -25 24
273 -25 24
274 -25 24
275 -25 24
276 -25 24
277 -25 24
278 0 -25
279 0 -25
280 0 -25
281 0 -25
282 0 -25
283 0 -25
284 0 -25
285 9 -30
286 9 -30
287 9 -30
288 9 -30
289 9 -30
290 9 -30
291 9 -30
292 2 -1
293 2 -1
294 2 -1
295 2 -1
296 2 -1
297 2 -1
298 -5 -8
299 -5 -8
300 -5 -8
301 -5 -8
302 -5 -8
303 -5 -8
304 -5 -8
305 -5 -8
306 -5 -8
307 -5 15
308 -5 15
309 -5 15
310 -5 15
311 -5 15
312 -5 15
313 -5 15
314 -5 15
315 18 -12
316 18 -12
317 18 -12
318 18 -12
319 18 -12
320 18 -12
321 18 -12
322 26 -3
323 26 -3
324 26 -3
325 26 -3
326 26 -3
327 26 -3
DEMAND_SECTION
1 0
2 32
3 32
4 32
5 32
6 8
7 2
8 1
9 32
10 32
11 32
12 16
13 8
14 2
15 2
16 32
17 32
18 32
19 16
20 2
21 2
22 2
23 1
24 32
25 32
26 32
27 32
28 1
29 32
30 32
31 32
32 32
33 8
34 2
35 2
36 1
37 32
38 32
39 32
40 32
41 8
42 2
43 1
44 32
45 32
46 32
47 16
48 8
49 2
50 2
51 2
52 1
53 32
54 32
55 32
56 16
57 2
58 1
59 32
60 32
61 32
62 16
63 2
64 2
65 2
66 32
67 32
68 32
69 16
70 1
71 32
72 32
73 32
74 32
75 8
76 1
77 32
78 32
79 32
80 16
81 8
82 2
83 2
84 32
85 32
86 32
87 16
88 8
89 2
90 2
91 2
92 32
93 32
94 32
95 32
96 32
97 32
98 32
99 32
100 2
101 2
102 2
103 32
104 32
105 32
106 16
107 8
108 1
109 32
110 32
111 32
112 16
113 2
114 32
115 32
116 32
117 32
118 32
119 32
120 32
121 32
122 8
123 2
124 1
125 32
126 32
127 32
128 32
129 1
130 32
131 32
132 32
133 16
134 2
135 1
136 32
137 32
138 32
139 32
140 2
141 2
142 32
143 32
144 32
145 32
146 2
147 2
148 32
149 32
150 32
151 32
152 2
153 32
154 32
155 32
156 32
157 8
158 1
159 32
160 32
161 32
162 32
163 2
164 2
165 2
166 1
167 32
168 32
169 32
170 16
171 1
172 32
173 32
174 32
175 32
176 8
177 32
178 32
179 32
180 16
181 2
182 2
183 32
184 32
185 32
186 16
187 2
188 1
189 32
190 32
191 32
192 32
193 8
194 2
195 1
196 32
197 32
198 32
199 32
200 8
201 1
202 32
203 32
204 32
205 32
206 8
207 2
208 32
209 32
210 32
211 16
212 2
213 2
214 2
215 32
216 32
217 32
218 32
219 8
220 2
221 1
222 32
223 32
224 32
225 16
226 8
227 2
228 2
229 2
230 1
231 32
232 32
233 32
234 32
235 8
236 32
237 32
238 32
239 16
240 8
241 2
242 2
243 2
244 1
245 32
246 32
247 32
248 16
249 8
250 2
251 2
252 2
253 1
254 32
255 32
256 32
257 32
258 8
259 2
260 32
261 32
262 32
263 16
264 2
265 2
266 2
267 32
268 32
269 32
270 16
271 2
272 32
273 32
274 32
275 32
276 2
277 2
278 32
279 32
280 32
281 32
282 2
283 2
284 1
285 32
286 32
287 32
288 32
289 8
290 2
291 2
292 32
293 32
294 32
295 16
296 8
297 1
298 32
299 32
300 32
301 16
302 8
303 2
304 2
305 2
306 1
307 32
308 32
309 32
310 16
311 8
312 2
313 2
314 1
315 32
316 32
317 32
318 32
319 8
320 2
321 1
322 32
323 32
324 32
325 32
326 2
327 1
DEPOT_SECTION
1
-1
EOF