SDVRP instances/p01/p01_7090_tsplib0_split0.sol
326 -1 138 135 136 137 -3 4 2 166 167 -6 7 5 174 172 171 173 175 -8 10 9 102 103 -11 12 127 125 20 17 16 21 140 139 -13 14 124 128 126 177 178 179 -15 227 224 223 221 228 222 226 225 229 -22 18 19 219 215 217 216 218 220 214 -23 26 260 261 259 -24 25 114 116 113 -27 122 120 119 121 123 118 117 -28 31 29 30 35 32 34 33 -37 39 36 38 168 -42 40 41 272 271 275 273 276 274 -44 48 50 51 49 43 45 46 47 306 -52 54 53 308 307 -55 56 57 163 160 161 159 162 164 165 158 311 -60 62 58 59 64 63 61 320 318 317 -66 252 245 250 246 251 249 244 247 248 -67 69 68 65 319 314 316 -70 71 73 75 72 296 295 294 -74 134 131 133 132 130 129 181 180 176 -81 77 76 79 82 78 80 293 -87 89 86 90 83 88 84 85 115 -91 92 94 93 -95 98 97 96 232 -101 100 99 286 287 284 290 288 285 289 -105 107 106 104 321 326 324 322 -109 268 270 267 269 266 -110 108 231 230 233 -112 111 279 283 277 281 280 282 278 234 -146 141 142 145 143 144 310 312 309 313 -148 147 149 150 151 -154 155 153 156 152 157 -169 170 194 191 193 188 189 190 192 -183 182 185 184 186 187 315 -196 200 195 199 198 197 -203 202 201 205 206 204 -209 207 208 210 213 212 211 325 323 -241 240 239 243 238 235 237 242 236 291 -257 255 258 253 256 254 262 265 263 264 -292 305 297 300 299 298 301 304 303 302 0 





OBJ=
2217.153
BEST_KNOWN=
0.000